data/instances/vrp_files/train_50.vrp
NAME : 50
COMMENT : Generated instance No. 50
TYPE : CVRP
DIMENSION : 21
EDGE_WEIGHT_TYPE : EUC_2D
CAPACITY : 30
NODE_COORD_SECTION
 1 20 269
 2 515 463
 3 45 290
 4 931 391
 5 546 532
 6 590 61
 7 362 723
 8 200 203
 9 10 437
 10 882 51
 11 191 310
 12 731 640
 13 415 759
 14 609 896
 15 818 252
 16 271 125
 17 336 999
 18 405 220
 19 762 542
 20 149 380
 21 414 753
DEMAND_SECTION
1 0
2 9
3 1
4 10
5 6
6 9
7 1
8 4
9 4
10 9
11 5
12 5
13 6
14 1
15 1
16 9
17 3
18 4
19 1
20 9
21 8
DEPOT_SECTION
 1
 -1
EOF